
Gurobi 11.0.2 (win64) logging started Wed Aug 14 12:34:11 2024

Set parameter LogFile to value "D:\Documenti\Scuola\Laurea magistrale unibs\laurea-unibs-mkfsp\output\2024-08-14T08_52_45.517425\logs\instance11_bucket1.log"
Set parameter TimeLimit to value 500
Set parameter MIPGap to value 0
Gurobi Optimizer version 11.0.2 build v11.0.2rc0 (win64 - Windows 10.0 (19045.2))

CPU model: Intel(R) Core(TM) i5-4670 CPU @ 3.40GHz, instruction set [SSE2|AVX|AVX2]
Thread count: 4 physical cores, 4 logical processors, using up to 4 threads

Optimize a model with 2848 rows, 11858 columns and 330018 nonzeros
Model fingerprint: 0xd93bafb6
Variable types: 0 continuous, 11858 integer (11719 binary)
Coefficient statistics:
  Matrix range     [1e+00, 1e+03]
  Objective range  [6e+02, 8e+03]
  Bounds range     [1e+00, 1e+00]
  RHS range        [1e+00, 1e+05]
Found heuristic solution: objective -0.0000000
Presolve time: 0.62s
Presolved: 2848 rows, 11858 columns, 330018 nonzeros
Variable types: 0 continuous, 11858 integer (11719 binary)
Deterministic concurrent LP optimizer: primal and dual simplex
Showing primal log only...

Concurrent spin time: 0.00s

Solved with dual simplex

Root relaxation: objective 8.069820e+05, 1042 iterations, 0.17 seconds (0.18 work units)

    Nodes    |    Current Node    |     Objective Bounds      |     Work
 Expl Unexpl |  Obj  Depth IntInf | Incumbent    BestBd   Gap | It/Node Time

H    0     0                    806982.00000 806982.000  0.00%     -    0s
     0     0 806982.000    0  713 806982.000 806982.000  0.00%     -    0s

Explored 1 nodes (1042 simplex iterations) in 0.85 seconds (0.77 work units)
Thread count was 4 (of 4 available processors)

Solution count 2: 806982 -0 

Optimal solution found (tolerance 0.00e+00)
Best objective 8.069820000000e+05, best bound 8.069820000000e+05, gap 0.0000%
